% Logging successfully configured
%%%mzn-stat: initTime=0.166694961
%%%mzn-stat: objective=650
%%%mzn-stat: nodes=2673
%%%mzn-stat: restarts=0
%%%mzn-stat: peakDepth=840
%%%mzn-stat: solveTime=1.218599491
%%%mzn-stat: variables=1395
%%%mzn-stat: propagators=1065
%%%mzn-stat: failures=725
%%%mzn-stat: propagations=35103
%%%mzn-stat: nogoods=725
%%%mzn-stat: numAtomicConstraintsPropagated=0
%%%mzn-stat: circuitNumber1PropagationsTotal=7659
%%%mzn-stat: circuitNumber1CircuitConflicts=608
%%%mzn-stat: circuitNumber1AlldiffConflicts=1
%%%mzn-stat: circuitNumber1TotalFixedEdgesAtConflict=54972
%%%mzn-stat: circuitNumber1NumberOfConflicts=609
%%%mzn-stat: circuitNumber1GacPrunings=11340
%%%mzn-stat: circuitNumber1PropagationsThatGacPruned=4195
%%%mzn-stat: circuitNumber1TotalPruningHallSetSize=25868
%%%mzn-stat: circuitNumber1NumberOfPruningExplanations=11340
%%%mzn-stat: circuitNumber1MaxPruningHallSetSize=64
%%%mzn-stat: circuitNumber1TotalSccSizeAtPruning=17471
%%%mzn-stat: circuitNumber1NumberOfSccPruningCalls=4195
%%%mzn-stat: circuitNumber1TotalVarsInvolvedInPruning=10116
%%%mzn-stat: circuitNumber1MaxValuesPrunedFromSingleVar=6
%%%mzn-stat: circuitNumber1HallCircuitChecks=14679
%%%mzn-stat: circuitNumber1HallCircuitPrunings=279
%%%mzn-stat: circuitNumber1CircuitPreventPrunings=3501
%%%mzn-stat: AverageConflictSize=59.15724137931034
%%%mzn-stat: NumUnitNogoodsLearned=0
%%%mzn-stat: AverageLearnedNogoodLength=56.990344827586206
%%%mzn-stat: AverageBacktrackAmount=0
%%%mzn-stat: AverageLbd=48.07310344827586
%%%mzn-stat: 2AutonomousSearchNumBackupCalled=769
%%%mzn-stat: 2AutonomousSearchNumPredicatesRemoved=0
%%%mzn-stat: 2AutonomousSearchNumCalls=770
%%%mzn-stat: 2AutonomousSearchNumPredicatesAdded=2452
%%%mzn-stat: 2AutonomousSearchAverageSizeOfHeap=3.1844155844155844
%%%mzn-stat: 2AutonomousSearchNumAssignedPredicatesEncountered=2452
%%%mzn-stat-end
maxleg = 650;
succ = array1d(1..100,[2, 12, 45, 8, 48, 7, 15, 17, 6, 14, 23, 13, 28, 19, 26, 18, 39, 25, 40, 10, 33, 27, 49, 20, 30, 16, 41, 31, 67, 37, 46, 34, 36, 47, 24, 1, 44, 63, 32, 52, 72, 35, 42, 59, 5, 53, 56, 74, 62, 87, 86, 54, 58, 95, 80, 69, 22, 84, 98, 57, 65, 70, 9, 73, 4, 78, 64, 60, 83, 91, 3, 76, 82, 85, 68, 88, 96, 61, 11, 81, 90, 92, 77, 94, 89, 29, 55, 93, 75, 43, 66, 99, 38, 50, 100, 97, 71, 21, 79, 51]);
% time elapsed: 16.17 s
----------
%%%mzn-stat: initTime=0.166694961
%%%mzn-stat: objective=521
%%%mzn-stat: nodes=4937
%%%mzn-stat: restarts=0
%%%mzn-stat: peakDepth=840
%%%mzn-stat: solveTime=2.206490086
%%%mzn-stat: variables=1395
%%%mzn-stat: propagators=1065
%%%mzn-stat: failures=1330
%%%mzn-stat: propagations=62744
%%%mzn-stat: nogoods=1330
%%%mzn-stat: numAtomicConstraintsPropagated=0
%%%mzn-stat: circuitNumber1PropagationsTotal=13677
%%%mzn-stat: circuitNumber1CircuitConflicts=1140
%%%mzn-stat: circuitNumber1AlldiffConflicts=1
%%%mzn-stat: circuitNumber1TotalFixedEdgesAtConflict=102860
%%%mzn-stat: circuitNumber1NumberOfConflicts=1141
%%%mzn-stat: circuitNumber1GacPrunings=20551
%%%mzn-stat: circuitNumber1PropagationsThatGacPruned=7434
%%%mzn-stat: circuitNumber1TotalPruningHallSetSize=47733
%%%mzn-stat: circuitNumber1NumberOfPruningExplanations=20551
%%%mzn-stat: circuitNumber1MaxPruningHallSetSize=64
%%%mzn-stat: circuitNumber1TotalSccSizeAtPruning=31947
%%%mzn-stat: circuitNumber1NumberOfSccPruningCalls=7434
%%%mzn-stat: circuitNumber1TotalVarsInvolvedInPruning=18291
%%%mzn-stat: circuitNumber1MaxValuesPrunedFromSingleVar=7
%%%mzn-stat: circuitNumber1HallCircuitChecks=25914
%%%mzn-stat: circuitNumber1HallCircuitPrunings=498
%%%mzn-stat: circuitNumber1CircuitPreventPrunings=6157
%%%mzn-stat: AverageConflictSize=64.17218045112782
%%%mzn-stat: NumUnitNogoodsLearned=0
%%%mzn-stat: AverageLearnedNogoodLength=60.545864661654136
%%%mzn-stat: AverageBacktrackAmount=0
%%%mzn-stat: AverageLbd=51.46992481203007
%%%mzn-stat: 2AutonomousSearchNumBackupCalled=1506
%%%mzn-stat: 2AutonomousSearchNumPredicatesRemoved=0
%%%mzn-stat: 2AutonomousSearchNumCalls=1508
%%%mzn-stat: 2AutonomousSearchNumPredicatesAdded=4865
%%%mzn-stat: 2AutonomousSearchAverageSizeOfHeap=3.452254641909814
%%%mzn-stat: 2AutonomousSearchNumAssignedPredicatesEncountered=5206
%%%mzn-stat-end
maxleg = 521;
succ = array1d(1..100,[2, 12, 45, 8, 48, 7, 15, 17, 6, 14, 23, 13, 28, 19, 26, 18, 39, 25, 40, 10, 33, 27, 49, 20, 30, 16, 41, 31, 67, 37, 46, 34, 36, 47, 24, 1, 44, 69, 32, 52, 72, 35, 42, 59, 5, 53, 56, 74, 62, 87, 86, 54, 58, 95, 80, 65, 22, 84, 98, 57, 70, 63, 38, 73, 61, 9, 64, 60, 83, 78, 4, 76, 82, 85, 68, 88, 89, 91, 11, 81, 90, 92, 75, 94, 96, 29, 55, 93, 3, 43, 66, 99, 77, 50, 100, 97, 71, 21, 79, 51]);
% time elapsed: 17.14 s
----------
%%%mzn-stat: initTime=0.166694961
%%%mzn-stat: objective=348
%%%mzn-stat: nodes=10909
%%%mzn-stat: restarts=0
%%%mzn-stat: peakDepth=840
%%%mzn-stat: solveTime=10.945574404
%%%mzn-stat: variables=1395
%%%mzn-stat: propagators=1065
%%%mzn-stat: failures=5673
%%%mzn-stat: propagations=303652
%%%mzn-stat: nogoods=5673
%%%mzn-stat: numAtomicConstraintsPropagated=0
%%%mzn-stat: circuitNumber1PropagationsTotal=60896
%%%mzn-stat: circuitNumber1CircuitConflicts=4087
%%%mzn-stat: circuitNumber1AlldiffConflicts=2
%%%mzn-stat: circuitNumber1TotalFixedEdgesAtConflict=317085
%%%mzn-stat: circuitNumber1NumberOfConflicts=4089
%%%mzn-stat: circuitNumber1GacPrunings=125223
%%%mzn-stat: circuitNumber1PropagationsThatGacPruned=40857
%%%mzn-stat: circuitNumber1TotalPruningHallSetSize=259032
%%%mzn-stat: circuitNumber1NumberOfPruningExplanations=125223
%%%mzn-stat: circuitNumber1MaxPruningHallSetSize=64
%%%mzn-stat: circuitNumber1TotalSccSizeAtPruning=125017
%%%mzn-stat: circuitNumber1NumberOfSccPruningCalls=40857
%%%mzn-stat: circuitNumber1TotalVarsInvolvedInPruning=103695
%%%mzn-stat: circuitNumber1MaxValuesPrunedFromSingleVar=7
%%%mzn-stat: circuitNumber1HallCircuitChecks=157195
%%%mzn-stat: circuitNumber1HallCircuitPrunings=5976
%%%mzn-stat: circuitNumber1CircuitPreventPrunings=41554
%%%mzn-stat: AverageConflictSize=26.189494094835183
%%%mzn-stat: NumUnitNogoodsLearned=0
%%%mzn-stat: AverageLearnedNogoodLength=54.07244843997885
%%%mzn-stat: AverageBacktrackAmount=0
%%%mzn-stat: AverageLbd=49.2027146130795
%%%mzn-stat: 2AutonomousSearchNumBackupCalled=2266
%%%mzn-stat: 2AutonomousSearchNumPredicatesRemoved=0
%%%mzn-stat: 2AutonomousSearchNumCalls=2269
%%%mzn-stat: 2AutonomousSearchNumPredicatesAdded=7680
%%%mzn-stat: 2AutonomousSearchAverageSizeOfHeap=3.858527985896871
%%%mzn-stat: 2AutonomousSearchNumAssignedPredicatesEncountered=8755
%%%mzn-stat-end
maxleg = 348;
succ = array1d(1..100,[2, 12, 45, 8, 48, 7, 15, 17, 6, 14, 23, 13, 28, 19, 26, 18, 39, 25, 40, 10, 33, 27, 49, 20, 30, 16, 41, 31, 67, 37, 46, 34, 36, 47, 24, 1, 44, 69, 32, 52, 72, 35, 42, 64, 5, 53, 56, 74, 62, 87, 54, 55, 58, 95, 79, 65, 22, 84, 98, 57, 70, 63, 38, 73, 61, 9, 82, 60, 83, 78, 4, 76, 92, 85, 68, 88, 89, 91, 11, 81, 90, 59, 75, 94, 96, 99, 80, 93, 3, 43, 66, 51, 77, 50, 100, 97, 71, 21, 29, 86]);
% time elapsed: 25.89 s
----------
%%%mzn-stat: initTime=0.166694961
%%%mzn-stat: objective=250
%%%mzn-stat: nodes=19530
%%%mzn-stat: restarts=0
%%%mzn-stat: peakDepth=840
%%%mzn-stat: solveTime=14.642141008
%%%mzn-stat: variables=1395
%%%mzn-stat: propagators=1065
%%%mzn-stat: failures=8001
%%%mzn-stat: propagations=398669
%%%mzn-stat: nogoods=8001
%%%mzn-stat: numAtomicConstraintsPropagated=0
%%%mzn-stat: circuitNumber1PropagationsTotal=82070
%%%mzn-stat: circuitNumber1CircuitConflicts=5945
%%%mzn-stat: circuitNumber1AlldiffConflicts=2
%%%mzn-stat: circuitNumber1TotalFixedEdgesAtConflict=490868
%%%mzn-stat: circuitNumber1NumberOfConflicts=5947
%%%mzn-stat: circuitNumber1GacPrunings=157903
%%%mzn-stat: circuitNumber1PropagationsThatGacPruned=52067
%%%mzn-stat: circuitNumber1TotalPruningHallSetSize=304381
%%%mzn-stat: circuitNumber1NumberOfPruningExplanations=157903
%%%mzn-stat: circuitNumber1MaxPruningHallSetSize=64
%%%mzn-stat: circuitNumber1TotalSccSizeAtPruning=144763
%%%mzn-stat: circuitNumber1NumberOfSccPruningCalls=52067
%%%mzn-stat: circuitNumber1TotalVarsInvolvedInPruning=133898
%%%mzn-stat: circuitNumber1MaxValuesPrunedFromSingleVar=7
%%%mzn-stat: circuitNumber1HallCircuitChecks=195859
%%%mzn-stat: circuitNumber1HallCircuitPrunings=6440
%%%mzn-stat: circuitNumber1CircuitPreventPrunings=49325
%%%mzn-stat: AverageConflictSize=39.55693038370204
%%%mzn-stat: NumUnitNogoodsLearned=0
%%%mzn-stat: AverageLearnedNogoodLength=56.9503812023497
%%%mzn-stat: AverageBacktrackAmount=0
%%%mzn-stat: AverageLbd=50.71916010498688
%%%mzn-stat: 2AutonomousSearchNumBackupCalled=3008
%%%mzn-stat: 2AutonomousSearchNumPredicatesRemoved=0
%%%mzn-stat: 2AutonomousSearchNumCalls=3012
%%%mzn-stat: 2AutonomousSearchNumPredicatesAdded=10443
%%%mzn-stat: 2AutonomousSearchAverageSizeOfHeap=4.27855245683931
%%%mzn-stat: 2AutonomousSearchNumAssignedPredicatesEncountered=12887
%%%mzn-stat-end
maxleg = 250;
succ = array1d(1..100,[2, 12, 45, 8, 48, 7, 15, 17, 6, 14, 23, 13, 28, 19, 26, 18, 39, 25, 40, 10, 33, 27, 49, 20, 30, 16, 41, 31, 67, 51, 46, 34, 36, 47, 24, 1, 44, 69, 32, 52, 72, 35, 42, 59, 5, 53, 56, 74, 62, 87, 54, 55, 58, 95, 79, 65, 22, 84, 98, 57, 70, 63, 38, 37, 61, 9, 64, 60, 83, 78, 4, 76, 29, 85, 68, 88, 89, 91, 11, 81, 90, 73, 75, 94, 96, 92, 80, 93, 3, 43, 66, 99, 77, 50, 100, 97, 71, 21, 82, 86]);
% time elapsed: 29.59 s
----------
%%%mzn-stat: initTime=0.166694961
%%%mzn-stat: objective=241
%%%mzn-stat: nodes=24990
%%%mzn-stat: restarts=0
%%%mzn-stat: peakDepth=840
%%%mzn-stat: solveTime=17.230058167
%%%mzn-stat: variables=1395
%%%mzn-stat: propagators=1065
%%%mzn-stat: failures=9606
%%%mzn-stat: propagations=462939
%%%mzn-stat: nogoods=9606
%%%mzn-stat: numAtomicConstraintsPropagated=0
%%%mzn-stat: circuitNumber1PropagationsTotal=95591
%%%mzn-stat: circuitNumber1CircuitConflicts=7241
%%%mzn-stat: circuitNumber1AlldiffConflicts=2
%%%mzn-stat: circuitNumber1TotalFixedEdgesAtConflict=612127
%%%mzn-stat: circuitNumber1NumberOfConflicts=7243
%%%mzn-stat: circuitNumber1GacPrunings=178525
%%%mzn-stat: circuitNumber1PropagationsThatGacPruned=59302
%%%mzn-stat: circuitNumber1TotalPruningHallSetSize=335700
%%%mzn-stat: circuitNumber1NumberOfPruningExplanations=178525
%%%mzn-stat: circuitNumber1MaxPruningHallSetSize=64
%%%mzn-stat: circuitNumber1TotalSccSizeAtPruning=159255
%%%mzn-stat: circuitNumber1NumberOfSccPruningCalls=59302
%%%mzn-stat: circuitNumber1TotalVarsInvolvedInPruning=152806
%%%mzn-stat: circuitNumber1MaxValuesPrunedFromSingleVar=7
%%%mzn-stat: circuitNumber1HallCircuitChecks=220222
%%%mzn-stat: circuitNumber1HallCircuitPrunings=6981
%%%mzn-stat: circuitNumber1CircuitPreventPrunings=54592
%%%mzn-stat: AverageConflictSize=45.133562356860295
%%%mzn-stat: NumUnitNogoodsLearned=0
%%%mzn-stat: AverageLearnedNogoodLength=58.40526754112013
%%%mzn-stat: AverageBacktrackAmount=0
%%%mzn-stat: AverageLbd=51.60254007911722
%%%mzn-stat: 2AutonomousSearchNumBackupCalled=3741
%%%mzn-stat: 2AutonomousSearchNumPredicatesRemoved=0
%%%mzn-stat: 2AutonomousSearchNumCalls=3746
%%%mzn-stat: 2AutonomousSearchNumPredicatesAdded=12760
%%%mzn-stat: 2AutonomousSearchAverageSizeOfHeap=4.554191137213027
%%%mzn-stat: 2AutonomousSearchNumAssignedPredicatesEncountered=17060
%%%mzn-stat-end
maxleg = 241;
succ = array1d(1..100,[2, 12, 45, 8, 48, 7, 15, 17, 6, 14, 23, 13, 28, 19, 26, 18, 39, 25, 40, 10, 33, 27, 49, 20, 30, 16, 41, 31, 67, 51, 46, 34, 36, 47, 24, 1, 44, 69, 32, 52, 72, 35, 42, 59, 5, 58, 56, 74, 62, 87, 54, 55, 84, 95, 79, 65, 22, 53, 98, 57, 70, 63, 38, 37, 61, 9, 64, 60, 83, 78, 4, 76, 29, 85, 68, 88, 89, 91, 11, 81, 90, 73, 75, 94, 96, 92, 80, 93, 3, 43, 66, 99, 77, 50, 100, 97, 71, 21, 82, 86]);
% time elapsed: 32.18 s
----------
%%%mzn-stat: initTime=0.166694961
%%%mzn-stat: objective=236
%%%mzn-stat: nodes=25823
%%%mzn-stat: restarts=0
%%%mzn-stat: peakDepth=840
%%%mzn-stat: solveTime=17.291356449
%%%mzn-stat: variables=1395
%%%mzn-stat: propagators=1065
%%%mzn-stat: failures=9636
%%%mzn-stat: propagations=465898
%%%mzn-stat: nogoods=9636
%%%mzn-stat: numAtomicConstraintsPropagated=0
%%%mzn-stat: circuitNumber1PropagationsTotal=95941
%%%mzn-stat: circuitNumber1CircuitConflicts=7259
%%%mzn-stat: circuitNumber1AlldiffConflicts=2
%%%mzn-stat: circuitNumber1TotalFixedEdgesAtConflict=613607
%%%mzn-stat: circuitNumber1NumberOfConflicts=7261
%%%mzn-stat: circuitNumber1GacPrunings=179226
%%%mzn-stat: circuitNumber1PropagationsThatGacPruned=59501
%%%mzn-stat: circuitNumber1TotalPruningHallSetSize=337558
%%%mzn-stat: circuitNumber1NumberOfPruningExplanations=179226
%%%mzn-stat: circuitNumber1MaxPruningHallSetSize=64
%%%mzn-stat: circuitNumber1TotalSccSizeAtPruning=159919
%%%mzn-stat: circuitNumber1NumberOfSccPruningCalls=59501
%%%mzn-stat: circuitNumber1TotalVarsInvolvedInPruning=153444
%%%mzn-stat: circuitNumber1MaxValuesPrunedFromSingleVar=7
%%%mzn-stat: circuitNumber1HallCircuitChecks=220949
%%%mzn-stat: circuitNumber1HallCircuitPrunings=7013
%%%mzn-stat: circuitNumber1CircuitPreventPrunings=54727
%%%mzn-stat: AverageConflictSize=45.121108343711086
%%%mzn-stat: NumUnitNogoodsLearned=0
%%%mzn-stat: AverageLearnedNogoodLength=58.39041095890411
%%%mzn-stat: AverageBacktrackAmount=0
%%%mzn-stat: AverageLbd=51.57399335823993
%%%mzn-stat: 2AutonomousSearchNumBackupCalled=4466
%%%mzn-stat: 2AutonomousSearchNumPredicatesRemoved=0
%%%mzn-stat: 2AutonomousSearchNumCalls=4472
%%%mzn-stat: 2AutonomousSearchNumPredicatesAdded=14266
%%%mzn-stat: 2AutonomousSearchAverageSizeOfHeap=4.7504472271914135
%%%mzn-stat: 2AutonomousSearchNumAssignedPredicatesEncountered=21244
%%%mzn-stat-end
maxleg = 236;
succ = array1d(1..100,[2, 12, 45, 8, 48, 7, 15, 17, 6, 14, 23, 13, 28, 19, 26, 18, 39, 25, 40, 10, 33, 27, 49, 20, 30, 16, 41, 31, 67, 51, 46, 34, 36, 47, 24, 1, 44, 69, 32, 52, 72, 35, 42, 59, 5, 58, 56, 74, 62, 87, 54, 55, 84, 95, 79, 66, 22, 53, 98, 57, 65, 63, 38, 37, 9, 70, 64, 60, 83, 91, 4, 76, 29, 85, 68, 88, 89, 61, 11, 81, 90, 73, 75, 94, 96, 92, 80, 93, 3, 43, 78, 99, 77, 50, 100, 97, 71, 21, 82, 86]);
% time elapsed: 32.25 s
----------
%%%mzn-stat: initTime=0.166694961
%%%mzn-stat: objective=234
%%%mzn-stat: nodes=26605
%%%mzn-stat: restarts=0
%%%mzn-stat: peakDepth=840
%%%mzn-stat: solveTime=17.312416511
%%%mzn-stat: variables=1395
%%%mzn-stat: propagators=1065
%%%mzn-stat: failures=9636
%%%mzn-stat: propagations=467833
%%%mzn-stat: nogoods=9636
%%%mzn-stat: numAtomicConstraintsPropagated=0
%%%mzn-stat: circuitNumber1PropagationsTotal=96092
%%%mzn-stat: circuitNumber1CircuitConflicts=7259
%%%mzn-stat: circuitNumber1AlldiffConflicts=2
%%%mzn-stat: circuitNumber1TotalFixedEdgesAtConflict=613607
%%%mzn-stat: circuitNumber1NumberOfConflicts=7261
%%%mzn-stat: circuitNumber1GacPrunings=179617
%%%mzn-stat: circuitNumber1PropagationsThatGacPruned=59577
%%%mzn-stat: circuitNumber1TotalPruningHallSetSize=339230
%%%mzn-stat: circuitNumber1NumberOfPruningExplanations=179617
%%%mzn-stat: circuitNumber1MaxPruningHallSetSize=92
%%%mzn-stat: circuitNumber1TotalSccSizeAtPruning=160446
%%%mzn-stat: circuitNumber1NumberOfSccPruningCalls=59577
%%%mzn-stat: circuitNumber1TotalVarsInvolvedInPruning=153807
%%%mzn-stat: circuitNumber1MaxValuesPrunedFromSingleVar=7
%%%mzn-stat: circuitNumber1HallCircuitChecks=221244
%%%mzn-stat: circuitNumber1HallCircuitPrunings=7018
%%%mzn-stat: circuitNumber1CircuitPreventPrunings=54771
%%%mzn-stat: AverageConflictSize=45.121108343711086
%%%mzn-stat: NumUnitNogoodsLearned=0
%%%mzn-stat: AverageLearnedNogoodLength=58.39041095890411
%%%mzn-stat: AverageBacktrackAmount=0
%%%mzn-stat: AverageLbd=51.57399335823993
%%%mzn-stat: 2AutonomousSearchNumBackupCalled=5180
%%%mzn-stat: 2AutonomousSearchNumPredicatesRemoved=0
%%%mzn-stat: 2AutonomousSearchNumCalls=5187
%%%mzn-stat: 2AutonomousSearchNumPredicatesAdded=14266
%%%mzn-stat: 2AutonomousSearchAverageSizeOfHeap=4.902255639097745
%%%mzn-stat: 2AutonomousSearchNumAssignedPredicatesEncountered=25428
%%%mzn-stat-end
maxleg = 234;
succ = array1d(1..100,[2, 12, 45, 8, 48, 7, 15, 17, 6, 14, 23, 13, 28, 19, 26, 18, 39, 25, 40, 10, 33, 27, 49, 20, 30, 16, 41, 31, 67, 51, 46, 34, 36, 47, 24, 1, 44, 69, 32, 52, 72, 35, 42, 59, 5, 58, 56, 74, 62, 87, 54, 55, 84, 95, 79, 66, 22, 53, 98, 57, 65, 63, 38, 37, 9, 70, 64, 60, 83, 91, 4, 76, 29, 85, 89, 88, 75, 61, 11, 81, 90, 73, 68, 94, 96, 92, 80, 93, 3, 43, 78, 99, 77, 50, 100, 97, 71, 21, 82, 86]);
% time elapsed: 32.27 s
----------
%%%mzn-stat: initTime=0.166694961
%%%mzn-stat: objective=232
%%%mzn-stat: nodes=27395
%%%mzn-stat: restarts=0
%%%mzn-stat: peakDepth=840
%%%mzn-stat: solveTime=17.365484237
%%%mzn-stat: variables=1395
%%%mzn-stat: propagators=1065
%%%mzn-stat: failures=9654
%%%mzn-stat: propagations=470514
%%%mzn-stat: nogoods=9654
%%%mzn-stat: numAtomicConstraintsPropagated=0
%%%mzn-stat: circuitNumber1PropagationsTotal=96376
%%%mzn-stat: circuitNumber1CircuitConflicts=7268
%%%mzn-stat: circuitNumber1AlldiffConflicts=2
%%%mzn-stat: circuitNumber1TotalFixedEdgesAtConflict=614381
%%%mzn-stat: circuitNumber1NumberOfConflicts=7270
%%%mzn-stat: circuitNumber1GacPrunings=180229
%%%mzn-stat: circuitNumber1PropagationsThatGacPruned=59744
%%%mzn-stat: circuitNumber1TotalPruningHallSetSize=341294
%%%mzn-stat: circuitNumber1NumberOfPruningExplanations=180229
%%%mzn-stat: circuitNumber1MaxPruningHallSetSize=92
%%%mzn-stat: circuitNumber1TotalSccSizeAtPruning=161157
%%%mzn-stat: circuitNumber1NumberOfSccPruningCalls=59744
%%%mzn-stat: circuitNumber1TotalVarsInvolvedInPruning=154363
%%%mzn-stat: circuitNumber1MaxValuesPrunedFromSingleVar=7
%%%mzn-stat: circuitNumber1HallCircuitChecks=221842
%%%mzn-stat: circuitNumber1HallCircuitPrunings=7051
%%%mzn-stat: circuitNumber1CircuitPreventPrunings=54883
%%%mzn-stat: AverageConflictSize=45.148850217526416
%%%mzn-stat: NumUnitNogoodsLearned=0
%%%mzn-stat: AverageLearnedNogoodLength=58.42003314688212
%%%mzn-stat: AverageBacktrackAmount=0
%%%mzn-stat: AverageLbd=51.585456805469235
%%%mzn-stat: 2AutonomousSearchNumBackupCalled=5882
%%%mzn-stat: 2AutonomousSearchNumPredicatesRemoved=0
%%%mzn-stat: 2AutonomousSearchNumCalls=5890
%%%mzn-stat: 2AutonomousSearchNumPredicatesAdded=15336
%%%mzn-stat: 2AutonomousSearchAverageSizeOfHeap=5.0276740237691
%%%mzn-stat: 2AutonomousSearchNumAssignedPredicatesEncountered=29613
%%%mzn-stat-end
maxleg = 232;
succ = array1d(1..100,[2, 12, 45, 8, 48, 7, 15, 17, 6, 14, 23, 13, 28, 19, 26, 18, 39, 25, 40, 10, 33, 27, 49, 20, 30, 16, 41, 31, 67, 51, 46, 34, 36, 47, 24, 1, 44, 69, 32, 52, 72, 35, 42, 59, 74, 58, 56, 3, 62, 87, 54, 55, 84, 95, 79, 66, 22, 53, 98, 57, 65, 63, 38, 37, 9, 70, 64, 60, 83, 91, 4, 76, 29, 85, 5, 88, 75, 61, 11, 81, 90, 73, 68, 94, 89, 92, 80, 93, 96, 43, 78, 99, 77, 50, 100, 97, 71, 21, 82, 86]);
% time elapsed: 32.33 s
----------
%%%mzn-stat: initTime=0.166694961
%%%mzn-stat: objective=226
%%%mzn-stat: nodes=28183
%%%mzn-stat: restarts=0
%%%mzn-stat: peakDepth=840
%%%mzn-stat: solveTime=17.394608922
%%%mzn-stat: variables=1395
%%%mzn-stat: propagators=1065
%%%mzn-stat: failures=9658
%%%mzn-stat: propagations=472665
%%%mzn-stat: nogoods=9658
%%%mzn-stat: numAtomicConstraintsPropagated=0
%%%mzn-stat: circuitNumber1PropagationsTotal=96578
%%%mzn-stat: circuitNumber1CircuitConflicts=7270
%%%mzn-stat: circuitNumber1AlldiffConflicts=2
%%%mzn-stat: circuitNumber1TotalFixedEdgesAtConflict=614572
%%%mzn-stat: circuitNumber1NumberOfConflicts=7272
%%%mzn-stat: circuitNumber1GacPrunings=180713
%%%mzn-stat: circuitNumber1PropagationsThatGacPruned=59845
%%%mzn-stat: circuitNumber1TotalPruningHallSetSize=343197
%%%mzn-stat: circuitNumber1NumberOfPruningExplanations=180713
%%%mzn-stat: circuitNumber1MaxPruningHallSetSize=92
%%%mzn-stat: circuitNumber1TotalSccSizeAtPruning=161729
%%%mzn-stat: circuitNumber1NumberOfSccPruningCalls=59845
%%%mzn-stat: circuitNumber1TotalVarsInvolvedInPruning=154802
%%%mzn-stat: circuitNumber1MaxValuesPrunedFromSingleVar=7
%%%mzn-stat: circuitNumber1HallCircuitChecks=222263
%%%mzn-stat: circuitNumber1HallCircuitPrunings=7056
%%%mzn-stat: circuitNumber1CircuitPreventPrunings=54947
%%%mzn-stat: AverageConflictSize=45.15500103541106
%%%mzn-stat: NumUnitNogoodsLearned=0
%%%mzn-stat: AverageLearnedNogoodLength=58.419652101884445
%%%mzn-stat: AverageBacktrackAmount=0
%%%mzn-stat: AverageLbd=51.58024435700973
%%%mzn-stat: 2AutonomousSearchNumBackupCalled=6583
%%%mzn-stat: 2AutonomousSearchNumPredicatesRemoved=0
%%%mzn-stat: 2AutonomousSearchNumCalls=6592
%%%mzn-stat: 2AutonomousSearchNumPredicatesAdded=15806
%%%mzn-stat: 2AutonomousSearchAverageSizeOfHeap=5.127578883495145
%%%mzn-stat: 2AutonomousSearchNumAssignedPredicatesEncountered=33801
%%%mzn-stat-end
maxleg = 226;
succ = array1d(1..100,[2, 12, 45, 8, 48, 7, 15, 17, 6, 14, 23, 13, 28, 19, 26, 18, 39, 25, 40, 10, 33, 27, 49, 20, 30, 16, 41, 31, 67, 51, 46, 34, 37, 47, 24, 1, 44, 69, 32, 52, 72, 35, 42, 59, 74, 58, 56, 3, 62, 87, 54, 55, 84, 95, 79, 66, 22, 53, 98, 57, 65, 63, 38, 82, 9, 70, 64, 60, 83, 91, 4, 76, 29, 85, 5, 88, 75, 61, 11, 81, 90, 92, 68, 94, 89, 99, 80, 93, 96, 43, 78, 21, 77, 50, 100, 97, 71, 36, 73, 86]);
% time elapsed: 32.36 s
----------
%%%mzn-stat: initTime=0.166694961
%%%mzn-stat: objective=217
%%%mzn-stat: nodes=28963
%%%mzn-stat: restarts=0
%%%mzn-stat: peakDepth=840
%%%mzn-stat: solveTime=17.436661573
%%%mzn-stat: variables=1395
%%%mzn-stat: propagators=1065
%%%mzn-stat: failures=9671
%%%mzn-stat: propagations=475260
%%%mzn-stat: nogoods=9671
%%%mzn-stat: numAtomicConstraintsPropagated=0
%%%mzn-stat: circuitNumber1PropagationsTotal=96863
%%%mzn-stat: circuitNumber1CircuitConflicts=7281
%%%mzn-stat: circuitNumber1AlldiffConflicts=2
%%%mzn-stat: circuitNumber1TotalFixedEdgesAtConflict=615537
%%%mzn-stat: circuitNumber1NumberOfConflicts=7283
%%%mzn-stat: circuitNumber1GacPrunings=181328
%%%mzn-stat: circuitNumber1PropagationsThatGacPruned=59990
%%%mzn-stat: circuitNumber1TotalPruningHallSetSize=346028
%%%mzn-stat: circuitNumber1NumberOfPruningExplanations=181328
%%%mzn-stat: circuitNumber1MaxPruningHallSetSize=92
%%%mzn-stat: circuitNumber1TotalSccSizeAtPruning=162512
%%%mzn-stat: circuitNumber1NumberOfSccPruningCalls=59990
%%%mzn-stat: circuitNumber1TotalVarsInvolvedInPruning=155345
%%%mzn-stat: circuitNumber1MaxValuesPrunedFromSingleVar=7
%%%mzn-stat: circuitNumber1HallCircuitChecks=222905
%%%mzn-stat: circuitNumber1HallCircuitPrunings=7062
%%%mzn-stat: circuitNumber1CircuitPreventPrunings=55039
%%%mzn-stat: AverageConflictSize=45.16895874263261
%%%mzn-stat: NumUnitNogoodsLearned=0
%%%mzn-stat: AverageLearnedNogoodLength=58.41402130079619
%%%mzn-stat: AverageBacktrackAmount=0
%%%mzn-stat: AverageLbd=51.561989453003825
%%%mzn-stat: 2AutonomousSearchNumBackupCalled=7247
%%%mzn-stat: 2AutonomousSearchNumPredicatesRemoved=0
%%%mzn-stat: 2AutonomousSearchNumCalls=7257
%%%mzn-stat: 2AutonomousSearchNumPredicatesAdded=16573
%%%mzn-stat: 2AutonomousSearchAverageSizeOfHeap=5.241146479261403
%%%mzn-stat: 2AutonomousSearchNumAssignedPredicatesEncountered=38035
%%%mzn-stat-end
maxleg = 217;
succ = array1d(1..100,[2, 12, 45, 8, 48, 7, 15, 17, 6, 14, 23, 13, 28, 19, 26, 18, 39, 25, 40, 10, 33, 27, 49, 20, 30, 16, 41, 31, 67, 51, 46, 34, 37, 47, 24, 1, 59, 69, 32, 52, 72, 35, 42, 64, 74, 58, 56, 3, 62, 87, 54, 55, 84, 95, 79, 66, 22, 53, 98, 57, 65, 63, 38, 82, 9, 70, 44, 60, 83, 91, 4, 76, 29, 85, 5, 88, 75, 61, 11, 81, 90, 92, 68, 94, 89, 99, 80, 93, 96, 43, 78, 21, 77, 50, 100, 97, 71, 36, 73, 86]);
% time elapsed: 32.41 s
----------
%%%mzn-stat: initTime=0.166694961
%%%mzn-stat: objective=209
%%%mzn-stat: nodes=770786
%%%mzn-stat: restarts=0
%%%mzn-stat: peakDepth=840
%%%mzn-stat: solveTime=1585.3407022
%%%mzn-stat: variables=1395
%%%mzn-stat: propagators=1065
%%%mzn-stat: failures=580298
%%%mzn-stat: propagations=19360072
%%%mzn-stat: nogoods=580298
%%%mzn-stat: numAtomicConstraintsPropagated=0
%%%mzn-stat: circuitNumber1PropagationsTotal=3305567
%%%mzn-stat: circuitNumber1CircuitConflicts=369620
%%%mzn-stat: circuitNumber1AlldiffConflicts=11
%%%mzn-stat: circuitNumber1TotalFixedEdgesAtConflict=35278980
%%%mzn-stat: circuitNumber1NumberOfConflicts=369631
%%%mzn-stat: circuitNumber1GacPrunings=5236304
%%%mzn-stat: circuitNumber1PropagationsThatGacPruned=1966258
%%%mzn-stat: circuitNumber1TotalPruningHallSetSize=10659600
%%%mzn-stat: circuitNumber1NumberOfPruningExplanations=5236304
%%%mzn-stat: circuitNumber1MaxPruningHallSetSize=92
%%%mzn-stat: circuitNumber1TotalSccSizeAtPruning=5158242
%%%mzn-stat: circuitNumber1NumberOfSccPruningCalls=1966258
%%%mzn-stat: circuitNumber1TotalVarsInvolvedInPruning=4524202
%%%mzn-stat: circuitNumber1MaxValuesPrunedFromSingleVar=7
%%%mzn-stat: circuitNumber1HallCircuitChecks=6529814
%%%mzn-stat: circuitNumber1HallCircuitPrunings=358628
%%%mzn-stat: circuitNumber1CircuitPreventPrunings=1477044
%%%mzn-stat: AverageConflictSize=71.84471082099198
%%%mzn-stat: NumUnitNogoodsLearned=0
%%%mzn-stat: AverageLearnedNogoodLength=80.0264760519595
%%%mzn-stat: AverageBacktrackAmount=0
%%%mzn-stat: AverageLbd=52.20735208461859
%%%mzn-stat: 2AutonomousSearchNumBackupCalled=7908
%%%mzn-stat: 2AutonomousSearchNumPredicatesRemoved=0
%%%mzn-stat: 2AutonomousSearchNumCalls=7919
%%%mzn-stat: 2AutonomousSearchNumPredicatesAdded=21160
%%%mzn-stat: 2AutonomousSearchAverageSizeOfHeap=5.534789746180073
%%%mzn-stat: 2AutonomousSearchNumAssignedPredicatesEncountered=43830
%%%mzn-stat-end
maxleg = 209;
succ = array1d(1..100,[2, 12, 45, 8, 48, 7, 15, 17, 6, 14, 23, 13, 28, 19, 26, 18, 39, 25, 40, 10, 33, 27, 49, 20, 30, 16, 41, 31, 67, 51, 46, 34, 37, 47, 24, 21, 64, 69, 32, 55, 72, 35, 42, 59, 74, 58, 56, 3, 62, 87, 92, 50, 84, 52, 79, 66, 22, 53, 98, 57, 65, 63, 38, 82, 9, 70, 44, 60, 83, 91, 4, 76, 29, 85, 5, 88, 75, 61, 11, 81, 90, 86, 68, 94, 89, 100, 80, 93, 96, 43, 78, 99, 77, 36, 54, 97, 71, 1, 73, 95]);
% time elapsed: 1600.32 s
----------
